NAME: ../File/prFile/tspFile/tsp_file15.tsp
COMMENT: TSP file generated by Python
TYPE: TSP
DIMENSION: 30
EDGE_WEIGHT_TYPE: EUC_2D
NODE_COORD_SECTION
1 84 22
2 47 16
3 63 41
4 1 10
5 72 59
6 14 87
7 80 76
8 84 80
9 72 25
10 84 77
11 4 5
12 64 45
13 81 77
14 49 50
15 96 39
16 93 29
17 4 48
18 15 45
19 47 75
20 38 47
21 79 85
22 80 58
23 26 11
24 13 32
25 28 97
26 83 87
27 19 28
28 30 37
29 36 76
30 91 35
EOF
